code/jssp_compact.lp
\ LP format - for model browsing. Use MPS format to capture full model detail.
Minimize
  0 y(1,1,1) + 0 y(1,1,2) + 0 y(1,1,3) + 0 y(1,1,4) + 0 y(1,1,5)
   + 0 y(1,1,6) + 0 y(2,2,1) + 0 y(2,2,2) + 0 y(2,2,3) + 0 y(2,2,4)
   + 0 y(2,2,5) + 0 y(2,2,6) + 0 y(3,3,1) + 0 y(3,3,2) + 0 y(3,3,3)
   + 0 y(3,3,4) + 0 y(3,3,5) + 0 y(3,3,6) + 0 y(4,4,1) + 0 y(4,4,2)
   + 0 y(4,4,3) + 0 y(4,4,4) + 0 y(4,4,5) + 0 y(4,4,6) + 0 y(5,5,1)
   + 0 y(5,5,2) + 0 y(5,5,3) + 0 y(5,5,4) + 0 y(5,5,5) + 0 y(5,5,6)
   + 0 y(6,6,1) + 0 y(6,6,2) + 0 y(6,6,3) + 0 y(6,6,4) + 0 y(6,6,5)
   + 0 y(6,6,6) + Z
Subject To
 ord(1,2): x(1,1) - x(1,3) >= 1
 ord(1,3): - x(1,1) + x(1,2) >= 3
 ord(1,4): - x(1,2) + x(1,4) >= 6
 ord(1,5): - x(1,4) + x(1,6) >= 7
 ord(1,6): x(1,5) - x(1,6) >= 3
 ord(2,2): - x(2,2) + x(2,3) >= 8
 ord(2,3): - x(2,3) + x(2,5) >= 5
 ord(2,4): - x(2,5) + x(2,6) >= 10
 ord(2,5): x(2,1) - x(2,6) >= 10
 ord(2,6): - x(2,1) + x(2,4) >= 10
 ord(3,2): - x(3,3) + x(3,4) >= 5
 ord(3,3): - x(3,4) + x(3,6) >= 4
 ord(3,4): x(3,1) - x(3,6) >= 8
 ord(3,5): - x(3,1) + x(3,2) >= 9
 ord(3,6): - x(3,2) + x(3,5) >= 1
 ord(4,2): x(4,1) - x(4,2) >= 5
 ord(4,3): - x(4,1) + x(4,3) >= 5
 ord(4,4): - x(4,3) + x(4,4) >= 5
 ord(4,5): - x(4,4) + x(4,5) >= 3
 ord(4,6): - x(4,5) + x(4,6) >= 8
 ord(5,2): x(5,2) - x(5,3) >= 9
 ord(5,3): - x(5,2) + x(5,5) >= 3
 ord(5,4): - x(5,5) + x(5,6) >= 5
 ord(5,5): x(5,1) - x(5,6) >= 4
 ord(5,6): - x(5,1) + x(5,4) >= 3
 ord(6,2): - x(6,2) + x(6,4) >= 3
 ord(6,3): - x(6,4) + x(6,6) >= 3
 ord(6,4): x(6,1) - x(6,6) >= 9
 ord(6,5): - x(6,1) + x(6,5) >= 10
 ord(6,6): x(6,3) - x(6,5) >= 4
 phi(1,2,1): x(1,1) - x(2,1) + 197 y(1,2,1) >= 10
 psi(1,2,1): - x(1,1) + x(2,1) - 197 y(1,2,1) >= -194
 phi(1,2,2): x(1,2) - x(2,2) + 197 y(1,2,2) >= 8
 psi(1,2,2): - x(1,2) + x(2,2) - 197 y(1,2,2) >= -191
 phi(1,2,3): x(1,3) - x(2,3) + 197 y(1,2,3) >= 5
 psi(1,2,3): - x(1,3) + x(2,3) - 197 y(1,2,3) >= -196
 phi(1,2,4): x(1,4) - x(2,4) + 197 y(1,2,4) >= 4
 psi(1,2,4): - x(1,4) + x(2,4) - 197 y(1,2,4) >= -190
 phi(1,2,5): x(1,5) - x(2,5) + 197 y(1,2,5) >= 10
 psi(1,2,5): - x(1,5) + x(2,5) - 197 y(1,2,5) >= -191
 phi(1,2,6): x(1,6) - x(2,6) + 197 y(1,2,6) >= 10
 psi(1,2,6): - x(1,6) + x(2,6) - 197 y(1,2,6) >= -194
 phi(1,3,1): x(1,1) - x(3,1) + 197 y(1,3,1) >= 9
 psi(1,3,1): - x(1,1) + x(3,1) - 197 y(1,3,1) >= -194
 phi(1,3,2): x(1,2) - x(3,2) + 197 y(1,3,2) >= 1
 psi(1,3,2): - x(1,2) + x(3,2) - 197 y(1,3,2) >= -191
 phi(1,3,3): x(1,3) - x(3,3) + 197 y(1,3,3) >= 5
 psi(1,3,3): - x(1,3) + x(3,3) - 197 y(1,3,3) >= -196
 phi(1,3,4): x(1,4) - x(3,4) + 197 y(1,3,4) >= 4
 psi(1,3,4): - x(1,4) + x(3,4) - 197 y(1,3,4) >= -190
 phi(1,3,5): x(1,5) - x(3,5) + 197 y(1,3,5) >= 7
 psi(1,3,5): - x(1,5) + x(3,5) - 197 y(1,3,5) >= -191
 phi(1,3,6): x(1,6) - x(3,6) + 197 y(1,3,6) >= 8
 psi(1,3,6): - x(1,6) + x(3,6) - 197 y(1,3,6) >= -194
 phi(1,4,1): x(1,1) - x(4,1) + 197 y(1,4,1) >= 5
 psi(1,4,1): - x(1,1) + x(4,1) - 197 y(1,4,1) >= -194
 phi(1,4,2): x(1,2) - x(4,2) + 197 y(1,4,2) >= 5
 psi(1,4,2): - x(1,2) + x(4,2) - 197 y(1,4,2) >= -191
 phi(1,4,3): x(1,3) - x(4,3) + 197 y(1,4,3) >= 5
 psi(1,4,3): - x(1,3) + x(4,3) - 197 y(1,4,3) >= -196
 phi(1,4,4): x(1,4) - x(4,4) + 197 y(1,4,4) >= 3
 psi(1,4,4): - x(1,4) + x(4,4) - 197 y(1,4,4) >= -190
 phi(1,4,5): x(1,5) - x(4,5) + 197 y(1,4,5) >= 8
 psi(1,4,5): - x(1,5) + x(4,5) - 197 y(1,4,5) >= -191
 phi(1,4,6): x(1,6) - x(4,6) + 197 y(1,4,6) >= 9
 psi(1,4,6): - x(1,6) + x(4,6) - 197 y(1,4,6) >= -194
 phi(1,5,1): x(1,1) - x(5,1) + 197 y(1,5,1) >= 3
 psi(1,5,1): - x(1,1) + x(5,1) - 197 y(1,5,1) >= -194
 phi(1,5,2): x(1,2) - x(5,2) + 197 y(1,5,2) >= 3
 psi(1,5,2): - x(1,2) + x(5,2) - 197 y(1,5,2) >= -191
 phi(1,5,3): x(1,3) - x(5,3) + 197 y(1,5,3) >= 9
 psi(1,5,3): - x(1,3) + x(5,3) - 197 y(1,5,3) >= -196
 phi(1,5,4): x(1,4) - x(5,4) + 197 y(1,5,4) >= 1
 psi(1,5,4): - x(1,4) + x(5,4) - 197 y(1,5,4) >= -190
 phi(1,5,5): x(1,5) - x(5,5) + 197 y(1,5,5) >= 5
 psi(1,5,5): - x(1,5) + x(5,5) - 197 y(1,5,5) >= -191
 phi(1,5,6): x(1,6) - x(5,6) + 197 y(1,5,6) >= 4
 psi(1,5,6): - x(1,6) + x(5,6) - 197 y(1,5,6) >= -194
 phi(1,6,1): x(1,1) - x(6,1) + 197 y(1,6,1) >= 10
 psi(1,6,1): - x(1,1) + x(6,1) - 197 y(1,6,1) >= -194
 phi(1,6,2): x(1,2) - x(6,2) + 197 y(1,6,2) >= 3
 psi(1,6,2): - x(1,2) + x(6,2) - 197 y(1,6,2) >= -191
 phi(1,6,3): x(1,3) - x(6,3) + 197 y(1,6,3) >= 1
 psi(1,6,3): - x(1,3) + x(6,3) - 197 y(1,6,3) >= -196
 phi(1,6,4): x(1,4) - x(6,4) + 197 y(1,6,4) >= 3
 psi(1,6,4): - x(1,4) + x(6,4) - 197 y(1,6,4) >= -190
 phi(1,6,5): x(1,5) - x(6,5) + 197 y(1,6,5) >= 4
 psi(1,6,5): - x(1,5) + x(6,5) - 197 y(1,6,5) >= -191
 phi(1,6,6): x(1,6) - x(6,6) + 197 y(1,6,6) >= 9
 psi(1,6,6): - x(1,6) + x(6,6) - 197 y(1,6,6) >= -194
 phi(2,1,1): - x(1,1) + x(2,1) + 197 y(2,1,1) >= 3
 psi(2,1,1): x(1,1) - x(2,1) - 197 y(2,1,1) >= -187
 phi(2,1,2): - x(1,2) + x(2,2) + 197 y(2,1,2) >= 6
 psi(2,1,2): x(1,2) - x(2,2) - 197 y(2,1,2) >= -189
 phi(2,1,3): - x(1,3) + x(2,3) + 197 y(2,1,3) >= 1
 psi(2,1,3): x(1,3) - x(2,3) - 197 y(2,1,3) >= -192
 phi(2,1,4): - x(1,4) + x(2,4) + 197 y(2,1,4) >= 7
 psi(2,1,4): x(1,4) - x(2,4) - 197 y(2,1,4) >= -193
 phi(2,1,5): - x(1,5) + x(2,5) + 197 y(2,1,5) >= 6
 psi(2,1,5): x(1,5) - x(2,5) - 197 y(2,1,5) >= -187
 phi(2,1,6): - x(1,6) + x(2,6) + 197 y(2,1,6) >= 3
 psi(2,1,6): x(1,6) - x(2,6) - 197 y(2,1,6) >= -187
 phi(2,3,1): x(2,1) - x(3,1) + 197 y(2,3,1) >= 9
 psi(2,3,1): - x(2,1) + x(3,1) - 197 y(2,3,1) >= -187
 phi(2,3,2): x(2,2) - x(3,2) + 197 y(2,3,2) >= 1
 psi(2,3,2): - x(2,2) + x(3,2) - 197 y(2,3,2) >= -189
 phi(2,3,3): x(2,3) - x(3,3) + 197 y(2,3,3) >= 5
 psi(2,3,3): - x(2,3) + x(3,3) - 197 y(2,3,3) >= -192
 phi(2,3,4): x(2,4) - x(3,4) + 197 y(2,3,4) >= 4
 psi(2,3,4): - x(2,4) + x(3,4) - 197 y(2,3,4) >= -193
 phi(2,3,5): x(2,5) - x(3,5) + 197 y(2,3,5) >= 7
 psi(2,3,5): - x(2,5) + x(3,5) - 197 y(2,3,5) >= -187
 phi(2,3,6): x(2,6) - x(3,6) + 197 y(2,3,6) >= 8
 psi(2,3,6): - x(2,6) + x(3,6) - 197 y(2,3,6) >= -187
 phi(2,4,1): x(2,1) - x(4,1) + 197 y(2,4,1) >= 5
 psi(2,4,1): - x(2,1) + x(4,1) - 197 y(2,4,1) >= -187
 phi(2,4,2): x(2,2) - x(4,2) + 197 y(2,4,2) >= 5
 psi(2,4,2): - x(2,2) + x(4,2) - 197 y(2,4,2) >= -189
 phi(2,4,3): x(2,3) - x(4,3) + 197 y(2,4,3) >= 5
 psi(2,4,3): - x(2,3) + x(4,3) - 197 y(2,4,3) >= -192
 phi(2,4,4): x(2,4) - x(4,4) + 197 y(2,4,4) >= 3
 psi(2,4,4): - x(2,4) + x(4,4) - 197 y(2,4,4) >= -193
 phi(2,4,5): x(2,5) - x(4,5) + 197 y(2,4,5) >= 8
 psi(2,4,5): - x(2,5) + x(4,5) - 197 y(2,4,5) >= -187
 phi(2,4,6): x(2,6) - x(4,6) + 197 y(2,4,6) >= 9
 psi(2,4,6): - x(2,6) + x(4,6) - 197 y(2,4,6) >= -187
 phi(2,5,1): x(2,1) - x(5,1) + 197 y(2,5,1) >= 3
 psi(2,5,1): - x(2,1) + x(5,1) - 197 y(2,5,1) >= -187
 phi(2,5,2): x(2,2) - x(5,2) + 197 y(2,5,2) >= 3
 psi(2,5,2): - x(2,2) + x(5,2) - 197 y(2,5,2) >= -189
 phi(2,5,3): x(2,3) - x(5,3) + 197 y(2,5,3) >= 9
 psi(2,5,3): - x(2,3) + x(5,3) - 197 y(2,5,3) >= -192
 phi(2,5,4): x(2,4) - x(5,4) + 197 y(2,5,4) >= 1
 psi(2,5,4): - x(2,4) + x(5,4) - 197 y(2,5,4) >= -193
 phi(2,5,5): x(2,5) - x(5,5) + 197 y(2,5,5) >= 5
 psi(2,5,5): - x(2,5) + x(5,5) - 197 y(2,5,5) >= -187
 phi(2,5,6): x(2,6) - x(5,6) + 197 y(2,5,6) >= 4
 psi(2,5,6): - x(2,6) + x(5,6) - 197 y(2,5,6) >= -187
 phi(2,6,1): x(2,1) - x(6,1) + 197 y(2,6,1) >= 10
 psi(2,6,1): - x(2,1) + x(6,1) - 197 y(2,6,1) >= -187
 phi(2,6,2): x(2,2) - x(6,2) + 197 y(2,6,2) >= 3
 psi(2,6,2): - x(2,2) + x(6,2) - 197 y(2,6,2) >= -189
 phi(2,6,3): x(2,3) - x(6,3) + 197 y(2,6,3) >= 1
 psi(2,6,3): - x(2,3) + x(6,3) - 197 y(2,6,3) >= -192
 phi(2,6,4): x(2,4) - x(6,4) + 197 y(2,6,4) >= 3
 psi(2,6,4): - x(2,4) + x(6,4) - 197 y(2,6,4) >= -193
 phi(2,6,5): x(2,5) - x(6,5) + 197 y(2,6,5) >= 4
 psi(2,6,5): - x(2,5) + x(6,5) - 197 y(2,6,5) >= -187
 phi(2,6,6): x(2,6) - x(6,6) + 197 y(2,6,6) >= 9
 psi(2,6,6): - x(2,6) + x(6,6) - 197 y(2,6,6) >= -187
 phi(3,1,1): - x(1,1) + x(3,1) + 197 y(3,1,1) >= 3
 psi(3,1,1): x(1,1) - x(3,1) - 197 y(3,1,1) >= -188
 phi(3,1,2): - x(1,2) + x(3,2) + 197 y(3,1,2) >= 6
 psi(3,1,2): x(1,2) - x(3,2) - 197 y(3,1,2) >= -196
 phi(3,1,3): - x(1,3) + x(3,3) + 197 y(3,1,3) >= 1
 psi(3,1,3): x(1,3) - x(3,3) - 197 y(3,1,3) >= -192
 phi(3,1,4): - x(1,4) + x(3,4) + 197 y(3,1,4) >= 7
 psi(3,1,4): x(1,4) - x(3,4) - 197 y(3,1,4) >= -193
 phi(3,1,5): - x(1,5) + x(3,5) + 197 y(3,1,5) >= 6
 psi(3,1,5): x(1,5) - x(3,5) - 197 y(3,1,5) >= -190
 phi(3,1,6): - x(1,6) + x(3,6) + 197 y(3,1,6) >= 3
 psi(3,1,6): x(1,6) - x(3,6) - 197 y(3,1,6) >= -189
 phi(3,2,1): - x(2,1) + x(3,1) + 197 y(3,2,1) >= 10
 psi(3,2,1): x(2,1) - x(3,1) - 197 y(3,2,1) >= -188
 phi(3,2,2): - x(2,2) + x(3,2) + 197 y(3,2,2) >= 8
 psi(3,2,2): x(2,2) - x(3,2) - 197 y(3,2,2) >= -196
 phi(3,2,3): - x(2,3) + x(3,3) + 197 y(3,2,3) >= 5
 psi(3,2,3): x(2,3) - x(3,3) - 197 y(3,2,3) >= -192
 phi(3,2,4): - x(2,4) + x(3,4) + 197 y(3,2,4) >= 4
 psi(3,2,4): x(2,4) - x(3,4) - 197 y(3,2,4) >= -193
 phi(3,2,5): - x(2,5) + x(3,5) + 197 y(3,2,5) >= 10
 psi(3,2,5): x(2,5) - x(3,5) - 197 y(3,2,5) >= -190
 phi(3,2,6): - x(2,6) + x(3,6) + 197 y(3,2,6) >= 10
 psi(3,2,6): x(2,6) - x(3,6) - 197 y(3,2,6) >= -189
 phi(3,4,1): x(3,1) - x(4,1) + 197 y(3,4,1) >= 5
 psi(3,4,1): - x(3,1) + x(4,1) - 197 y(3,4,1) >= -188
 phi(3,4,2): x(3,2) - x(4,2) + 197 y(3,4,2) >= 5
 psi(3,4,2): - x(3,2) + x(4,2) - 197 y(3,4,2) >= -196
 phi(3,4,3): x(3,3) - x(4,3) + 197 y(3,4,3) >= 5
 psi(3,4,3): - x(3,3) + x(4,3) - 197 y(3,4,3) >= -192
 phi(3,4,4): x(3,4) - x(4,4) + 197 y(3,4,4) >= 3
 psi(3,4,4): - x(3,4) + x(4,4) - 197 y(3,4,4) >= -193
 phi(3,4,5): x(3,5) - x(4,5) + 197 y(3,4,5) >= 8
 psi(3,4,5): - x(3,5) + x(4,5) - 197 y(3,4,5) >= -190
 phi(3,4,6): x(3,6) - x(4,6) + 197 y(3,4,6) >= 9
 psi(3,4,6): - x(3,6) + x(4,6) - 197 y(3,4,6) >= -189
 phi(3,5,1): x(3,1) - x(5,1) + 197 y(3,5,1) >= 3
 psi(3,5,1): - x(3,1) + x(5,1) - 197 y(3,5,1) >= -188
 phi(3,5,2): x(3,2) - x(5,2) + 197 y(3,5,2) >= 3
 psi(3,5,2): - x(3,2) + x(5,2) - 197 y(3,5,2) >= -196
 phi(3,5,3): x(3,3) - x(5,3) + 197 y(3,5,3) >= 9
 psi(3,5,3): - x(3,3) + x(5,3) - 197 y(3,5,3) >= -192
 phi(3,5,4): x(3,4) - x(5,4) + 197 y(3,5,4) >= 1
 psi(3,5,4): - x(3,4) + x(5,4) - 197 y(3,5,4) >= -193
 phi(3,5,5): x(3,5) - x(5,5) + 197 y(3,5,5) >= 5
 psi(3,5,5): - x(3,5) + x(5,5) - 197 y(3,5,5) >= -190
 phi(3,5,6): x(3,6) - x(5,6) + 197 y(3,5,6) >= 4
 psi(3,5,6): - x(3,6) + x(5,6) - 197 y(3,5,6) >= -189
 phi(3,6,1): x(3,1) - x(6,1) + 197 y(3,6,1) >= 10
 psi(3,6,1): - x(3,1) + x(6,1) - 197 y(3,6,1) >= -188
 phi(3,6,2): x(3,2) - x(6,2) + 197 y(3,6,2) >= 3
 psi(3,6,2): - x(3,2) + x(6,2) - 197 y(3,6,2) >= -196
 phi(3,6,3): x(3,3) - x(6,3) + 197 y(3,6,3) >= 1
 psi(3,6,3): - x(3,3) + x(6,3) - 197 y(3,6,3) >= -192
 phi(3,6,4): x(3,4) - x(6,4) + 197 y(3,6,4) >= 3
 psi(3,6,4): - x(3,4) + x(6,4) - 197 y(3,6,4) >= -193
 phi(3,6,5): x(3,5) - x(6,5) + 197 y(3,6,5) >= 4
 psi(3,6,5): - x(3,5) + x(6,5) - 197 y(3,6,5) >= -190
 phi(3,6,6): x(3,6) - x(6,6) + 197 y(3,6,6) >= 9
 psi(3,6,6): - x(3,6) + x(6,6) - 197 y(3,6,6) >= -189
 phi(4,1,1): - x(1,1) + x(4,1) + 197 y(4,1,1) >= 3
 psi(4,1,1): x(1,1) - x(4,1) - 197 y(4,1,1) >= -192
 phi(4,1,2): - x(1,2) + x(4,2) + 197 y(4,1,2) >= 6
 psi(4,1,2): x(1,2) - x(4,2) - 197 y(4,1,2) >= -192
 phi(4,1,3): - x(1,3) + x(4,3) + 197 y(4,1,3) >= 1
 psi(4,1,3): x(1,3) - x(4,3) - 197 y(4,1,3) >= -192
 phi(4,1,4): - x(1,4) + x(4,4) + 197 y(4,1,4) >= 7
 psi(4,1,4): x(1,4) - x(4,4) - 197 y(4,1,4) >= -194
 phi(4,1,5): - x(1,5) + x(4,5) + 197 y(4,1,5) >= 6
 psi(4,1,5): x(1,5) - x(4,5) - 197 y(4,1,5) >= -189
 phi(4,1,6): - x(1,6) + x(4,6) + 197 y(4,1,6) >= 3
 psi(4,1,6): x(1,6) - x(4,6) - 197 y(4,1,6) >= -188
 phi(4,2,1): - x(2,1) + x(4,1) + 197 y(4,2,1) >= 10
 psi(4,2,1): x(2,1) - x(4,1) - 197 y(4,2,1) >= -192
 phi(4,2,2): - x(2,2) + x(4,2) + 197 y(4,2,2) >= 8
 psi(4,2,2): x(2,2) - x(4,2) - 197 y(4,2,2) >= -192
 phi(4,2,3): - x(2,3) + x(4,3) + 197 y(4,2,3) >= 5
 psi(4,2,3): x(2,3) - x(4,3) - 197 y(4,2,3) >= -192
 phi(4,2,4): - x(2,4) + x(4,4) + 197 y(4,2,4) >= 4
 psi(4,2,4): x(2,4) - x(4,4) - 197 y(4,2,4) >= -194
 phi(4,2,5): - x(2,5) + x(4,5) + 197 y(4,2,5) >= 10
 psi(4,2,5): x(2,5) - x(4,5) - 197 y(4,2,5) >= -189
 phi(4,2,6): - x(2,6) + x(4,6) + 197 y(4,2,6) >= 10
 psi(4,2,6): x(2,6) - x(4,6) - 197 y(4,2,6) >= -188
 phi(4,3,1): - x(3,1) + x(4,1) + 197 y(4,3,1) >= 9
 psi(4,3,1): x(3,1) - x(4,1) - 197 y(4,3,1) >= -192
 phi(4,3,2): - x(3,2) + x(4,2) + 197 y(4,3,2) >= 1
 psi(4,3,2): x(3,2) - x(4,2) - 197 y(4,3,2) >= -192
 phi(4,3,3): - x(3,3) + x(4,3) + 197 y(4,3,3) >= 5
 psi(4,3,3): x(3,3) - x(4,3) - 197 y(4,3,3) >= -192
 phi(4,3,4): - x(3,4) + x(4,4) + 197 y(4,3,4) >= 4
 psi(4,3,4): x(3,4) - x(4,4) - 197 y(4,3,4) >= -194
 phi(4,3,5): - x(3,5) + x(4,5) + 197 y(4,3,5) >= 7
 psi(4,3,5): x(3,5) - x(4,5) - 197 y(4,3,5) >= -189
 phi(4,3,6): - x(3,6) + x(4,6) + 197 y(4,3,6) >= 8
 psi(4,3,6): x(3,6) - x(4,6) - 197 y(4,3,6) >= -188
 phi(4,5,1): x(4,1) - x(5,1) + 197 y(4,5,1) >= 3
 psi(4,5,1): - x(4,1) + x(5,1) - 197 y(4,5,1) >= -192
 phi(4,5,2): x(4,2) - x(5,2) + 197 y(4,5,2) >= 3
 psi(4,5,2): - x(4,2) + x(5,2) - 197 y(4,5,2) >= -192
 phi(4,5,3): x(4,3) - x(5,3) + 197 y(4,5,3) >= 9
 psi(4,5,3): - x(4,3) + x(5,3) - 197 y(4,5,3) >= -192
 phi(4,5,4): x(4,4) - x(5,4) + 197 y(4,5,4) >= 1
 psi(4,5,4): - x(4,4) + x(5,4) - 197 y(4,5,4) >= -194
 phi(4,5,5): x(4,5) - x(5,5) + 197 y(4,5,5) >= 5
 psi(4,5,5): - x(4,5) + x(5,5) - 197 y(4,5,5) >= -189
 phi(4,5,6): x(4,6) - x(5,6) + 197 y(4,5,6) >= 4
 psi(4,5,6): - x(4,6) + x(5,6) - 197 y(4,5,6) >= -188
 phi(4,6,1): x(4,1) - x(6,1) + 197 y(4,6,1) >= 10
 psi(4,6,1): - x(4,1) + x(6,1) - 197 y(4,6,1) >= -192
 phi(4,6,2): x(4,2) - x(6,2) + 197 y(4,6,2) >= 3
 psi(4,6,2): - x(4,2) + x(6,2) - 197 y(4,6,2) >= -192
 phi(4,6,3): x(4,3) - x(6,3) + 197 y(4,6,3) >= 1
 psi(4,6,3): - x(4,3) + x(6,3) - 197 y(4,6,3) >= -192
 phi(4,6,4): x(4,4) - x(6,4) + 197 y(4,6,4) >= 3
 psi(4,6,4): - x(4,4) + x(6,4) - 197 y(4,6,4) >= -194
 phi(4,6,5): x(4,5) - x(6,5) + 197 y(4,6,5) >= 4
 psi(4,6,5): - x(4,5) + x(6,5) - 197 y(4,6,5) >= -189
 phi(4,6,6): x(4,6) - x(6,6) + 197 y(4,6,6) >= 9
 psi(4,6,6): - x(4,6) + x(6,6) - 197 y(4,6,6) >= -188
 phi(5,1,1): - x(1,1) + x(5,1) + 197 y(5,1,1) >= 3
 psi(5,1,1): x(1,1) - x(5,1) - 197 y(5,1,1) >= -194
 phi(5,1,2): - x(1,2) + x(5,2) + 197 y(5,1,2) >= 6
 psi(5,1,2): x(1,2) - x(5,2) - 197 y(5,1,2) >= -194
 phi(5,1,3): - x(1,3) + x(5,3) + 197 y(5,1,3) >= 1
 psi(5,1,3): x(1,3) - x(5,3) - 197 y(5,1,3) >= -188
 phi(5,1,4): - x(1,4) + x(5,4) + 197 y(5,1,4) >= 7
 psi(5,1,4): x(1,4) - x(5,4) - 197 y(5,1,4) >= -196
 phi(5,1,5): - x(1,5) + x(5,5) + 197 y(5,1,5) >= 6
 psi(5,1,5): x(1,5) - x(5,5) - 197 y(5,1,5) >= -192
 phi(5,1,6): - x(1,6) + x(5,6) + 197 y(5,1,6) >= 3
 psi(5,1,6): x(1,6) - x(5,6) - 197 y(5,1,6) >= -193
 phi(5,2,1): - x(2,1) + x(5,1) + 197 y(5,2,1) >= 10
 psi(5,2,1): x(2,1) - x(5,1) - 197 y(5,2,1) >= -194
 phi(5,2,2): - x(2,2) + x(5,2) + 197 y(5,2,2) >= 8
 psi(5,2,2): x(2,2) - x(5,2) - 197 y(5,2,2) >= -194
 phi(5,2,3): - x(2,3) + x(5,3) + 197 y(5,2,3) >= 5
 psi(5,2,3): x(2,3) - x(5,3) - 197 y(5,2,3) >= -188
 phi(5,2,4): - x(2,4) + x(5,4) + 197 y(5,2,4) >= 4
 psi(5,2,4): x(2,4) - x(5,4) - 197 y(5,2,4) >= -196
 phi(5,2,5): - x(2,5) + x(5,5) + 197 y(5,2,5) >= 10
 psi(5,2,5): x(2,5) - x(5,5) - 197 y(5,2,5) >= -192
 phi(5,2,6): - x(2,6) + x(5,6) + 197 y(5,2,6) >= 10
 psi(5,2,6): x(2,6) - x(5,6) - 197 y(5,2,6) >= -193
 phi(5,3,1): - x(3,1) + x(5,1) + 197 y(5,3,1) >= 9
 psi(5,3,1): x(3,1) - x(5,1) - 197 y(5,3,1) >= -194
 phi(5,3,2): - x(3,2) + x(5,2) + 197 y(5,3,2) >= 1
 psi(5,3,2): x(3,2) - x(5,2) - 197 y(5,3,2) >= -194
 phi(5,3,3): - x(3,3) + x(5,3) + 197 y(5,3,3) >= 5
 psi(5,3,3): x(3,3) - x(5,3) - 197 y(5,3,3) >= -188
 phi(5,3,4): - x(3,4) + x(5,4) + 197 y(5,3,4) >= 4
 psi(5,3,4): x(3,4) - x(5,4) - 197 y(5,3,4) >= -196
 phi(5,3,5): - x(3,5) + x(5,5) + 197 y(5,3,5) >= 7
 psi(5,3,5): x(3,5) - x(5,5) - 197 y(5,3,5) >= -192
 phi(5,3,6): - x(3,6) + x(5,6) + 197 y(5,3,6) >= 8
 psi(5,3,6): x(3,6) - x(5,6) - 197 y(5,3,6) >= -193
 phi(5,4,1): - x(4,1) + x(5,1) + 197 y(5,4,1) >= 5
 psi(5,4,1): x(4,1) - x(5,1) - 197 y(5,4,1) >= -194
 phi(5,4,2): - x(4,2) + x(5,2) + 197 y(5,4,2) >= 5
 psi(5,4,2): x(4,2) - x(5,2) - 197 y(5,4,2) >= -194
 phi(5,4,3): - x(4,3) + x(5,3) + 197 y(5,4,3) >= 5
 psi(5,4,3): x(4,3) - x(5,3) - 197 y(5,4,3) >= -188
 phi(5,4,4): - x(4,4) + x(5,4) + 197 y(5,4,4) >= 3
 psi(5,4,4): x(4,4) - x(5,4) - 197 y(5,4,4) >= -196
 phi(5,4,5): - x(4,5) + x(5,5) + 197 y(5,4,5) >= 8
 psi(5,4,5): x(4,5) - x(5,5) - 197 y(5,4,5) >= -192
 phi(5,4,6): - x(4,6) + x(5,6) + 197 y(5,4,6) >= 9
 psi(5,4,6): x(4,6) - x(5,6) - 197 y(5,4,6) >= -193
 phi(5,6,1): x(5,1) - x(6,1) + 197 y(5,6,1) >= 10
 psi(5,6,1): - x(5,1) + x(6,1) - 197 y(5,6,1) >= -194
 phi(5,6,2): x(5,2) - x(6,2) + 197 y(5,6,2) >= 3
 psi(5,6,2): - x(5,2) + x(6,2) - 197 y(5,6,2) >= -194
 phi(5,6,3): x(5,3) - x(6,3) + 197 y(5,6,3) >= 1
 psi(5,6,3): - x(5,3) + x(6,3) - 197 y(5,6,3) >= -188
 phi(5,6,4): x(5,4) - x(6,4) + 197 y(5,6,4) >= 3
 psi(5,6,4): - x(5,4) + x(6,4) - 197 y(5,6,4) >= -196
 phi(5,6,5): x(5,5) - x(6,5) + 197 y(5,6,5) >= 4
 psi(5,6,5): - x(5,5) + x(6,5) - 197 y(5,6,5) >= -192
 phi(5,6,6): x(5,6) - x(6,6) + 197 y(5,6,6) >= 9
 psi(5,6,6): - x(5,6) + x(6,6) - 197 y(5,6,6) >= -193
 phi(6,1,1): - x(1,1) + x(6,1) + 197 y(6,1,1) >= 3
 psi(6,1,1): x(1,1) - x(6,1) - 197 y(6,1,1) >= -187
 phi(6,1,2): - x(1,2) + x(6,2) + 197 y(6,1,2) >= 6
 psi(6,1,2): x(1,2) - x(6,2) - 197 y(6,1,2) >= -194
 phi(6,1,3): - x(1,3) + x(6,3) + 197 y(6,1,3) >= 1
 psi(6,1,3): x(1,3) - x(6,3) - 197 y(6,1,3) >= -196
 phi(6,1,4): - x(1,4) + x(6,4) + 197 y(6,1,4) >= 7
 psi(6,1,4): x(1,4) - x(6,4) - 197 y(6,1,4) >= -194
 phi(6,1,5): - x(1,5) + x(6,5) + 197 y(6,1,5) >= 6
 psi(6,1,5): x(1,5) - x(6,5) - 197 y(6,1,5) >= -193
 phi(6,1,6): - x(1,6) + x(6,6) + 197 y(6,1,6) >= 3
 psi(6,1,6): x(1,6) - x(6,6) - 197 y(6,1,6) >= -188
 phi(6,2,1): - x(2,1) + x(6,1) + 197 y(6,2,1) >= 10
 psi(6,2,1): x(2,1) - x(6,1) - 197 y(6,2,1) >= -187
 phi(6,2,2): - x(2,2) + x(6,2) + 197 y(6,2,2) >= 8
 psi(6,2,2): x(2,2) - x(6,2) - 197 y(6,2,2) >= -194
 phi(6,2,3): - x(2,3) + x(6,3) + 197 y(6,2,3) >= 5
 psi(6,2,3): x(2,3) - x(6,3) - 197 y(6,2,3) >= -196
 phi(6,2,4): - x(2,4) + x(6,4) + 197 y(6,2,4) >= 4
 psi(6,2,4): x(2,4) - x(6,4) - 197 y(6,2,4) >= -194
 phi(6,2,5): - x(2,5) + x(6,5) + 197 y(6,2,5) >= 10
 psi(6,2,5): x(2,5) - x(6,5) - 197 y(6,2,5) >= -193
 phi(6,2,6): - x(2,6) + x(6,6) + 197 y(6,2,6) >= 10
 psi(6,2,6): x(2,6) - x(6,6) - 197 y(6,2,6) >= -188
 phi(6,3,1): - x(3,1) + x(6,1) + 197 y(6,3,1) >= 9
 psi(6,3,1): x(3,1) - x(6,1) - 197 y(6,3,1) >= -187
 phi(6,3,2): - x(3,2) + x(6,2) + 197 y(6,3,2) >= 1
 psi(6,3,2): x(3,2) - x(6,2) - 197 y(6,3,2) >= -194
 phi(6,3,3): - x(3,3) + x(6,3) + 197 y(6,3,3) >= 5
 psi(6,3,3): x(3,3) - x(6,3) - 197 y(6,3,3) >= -196
 phi(6,3,4): - x(3,4) + x(6,4) + 197 y(6,3,4) >= 4
 psi(6,3,4): x(3,4) - x(6,4) - 197 y(6,3,4) >= -194
 phi(6,3,5): - x(3,5) + x(6,5) + 197 y(6,3,5) >= 7
 psi(6,3,5): x(3,5) - x(6,5) - 197 y(6,3,5) >= -193
 phi(6,3,6): - x(3,6) + x(6,6) + 197 y(6,3,6) >= 8
 psi(6,3,6): x(3,6) - x(6,6) - 197 y(6,3,6) >= -188
 phi(6,4,1): - x(4,1) + x(6,1) + 197 y(6,4,1) >= 5
 psi(6,4,1): x(4,1) - x(6,1) - 197 y(6,4,1) >= -187
 phi(6,4,2): - x(4,2) + x(6,2) + 197 y(6,4,2) >= 5
 psi(6,4,2): x(4,2) - x(6,2) - 197 y(6,4,2) >= -194
 phi(6,4,3): - x(4,3) + x(6,3) + 197 y(6,4,3) >= 5
 psi(6,4,3): x(4,3) - x(6,3) - 197 y(6,4,3) >= -196
 phi(6,4,4): - x(4,4) + x(6,4) + 197 y(6,4,4) >= 3
 psi(6,4,4): x(4,4) - x(6,4) - 197 y(6,4,4) >= -194
 phi(6,4,5): - x(4,5) + x(6,5) + 197 y(6,4,5) >= 8
 psi(6,4,5): x(4,5) - x(6,5) - 197 y(6,4,5) >= -193
 phi(6,4,6): - x(4,6) + x(6,6) + 197 y(6,4,6) >= 9
 psi(6,4,6): x(4,6) - x(6,6) - 197 y(6,4,6) >= -188
 phi(6,5,1): - x(5,1) + x(6,1) + 197 y(6,5,1) >= 3
 psi(6,5,1): x(5,1) - x(6,1) - 197 y(6,5,1) >= -187
 phi(6,5,2): - x(5,2) + x(6,2) + 197 y(6,5,2) >= 3
 psi(6,5,2): x(5,2) - x(6,2) - 197 y(6,5,2) >= -194
 phi(6,5,3): - x(5,3) + x(6,3) + 197 y(6,5,3) >= 9
 psi(6,5,3): x(5,3) - x(6,3) - 197 y(6,5,3) >= -196
 phi(6,5,4): - x(5,4) + x(6,4) + 197 y(6,5,4) >= 1
 psi(6,5,4): x(5,4) - x(6,4) - 197 y(6,5,4) >= -194
 phi(6,5,5): - x(5,5) + x(6,5) + 197 y(6,5,5) >= 5
 psi(6,5,5): x(5,5) - x(6,5) - 197 y(6,5,5) >= -193
 phi(6,5,6): - x(5,6) + x(6,6) + 197 y(6,5,6) >= 4
 psi(6,5,6): x(5,6) - x(6,6) - 197 y(6,5,6) >= -188
 fin(1): - x(1,5) + Z >= 6
 fin(2): - x(2,4) + Z >= 4
 fin(3): - x(3,5) + Z >= 7
 fin(4): - x(4,6) + Z >= 9
 fin(5): - x(5,4) + Z >= 1
 fin(6): - x(6,3) + Z >= 1
Bounds
Binaries
 y(1,1,1) y(1,1,2) y(1,1,3) y(1,1,4) y(1,1,5) y(1,1,6) y(1,2,1) y(1,2,2)
 y(1,2,3) y(1,2,4) y(1,2,5) y(1,2,6) y(1,3,1) y(1,3,2) y(1,3,3) y(1,3,4)
 y(1,3,5) y(1,3,6) y(1,4,1) y(1,4,2) y(1,4,3) y(1,4,4) y(1,4,5) y(1,4,6)
 y(1,5,1) y(1,5,2) y(1,5,3) y(1,5,4) y(1,5,5) y(1,5,6) y(1,6,1) y(1,6,2)
 y(1,6,3) y(1,6,4) y(1,6,5) y(1,6,6) y(2,1,1) y(2,1,2) y(2,1,3) y(2,1,4)
 y(2,1,5) y(2,1,6) y(2,2,1) y(2,2,2) y(2,2,3) y(2,2,4) y(2,2,5) y(2,2,6)
 y(2,3,1) y(2,3,2) y(2,3,3) y(2,3,4) y(2,3,5) y(2,3,6) y(2,4,1) y(2,4,2)
 y(2,4,3) y(2,4,4) y(2,4,5) y(2,4,6) y(2,5,1) y(2,5,2) y(2,5,3) y(2,5,4)
 y(2,5,5) y(2,5,6) y(2,6,1) y(2,6,2) y(2,6,3) y(2,6,4) y(2,6,5) y(2,6,6)
 y(3,1,1) y(3,1,2) y(3,1,3) y(3,1,4) y(3,1,5) y(3,1,6) y(3,2,1) y(3,2,2)
 y(3,2,3) y(3,2,4) y(3,2,5) y(3,2,6) y(3,3,1) y(3,3,2) y(3,3,3) y(3,3,4)
 y(3,3,5) y(3,3,6) y(3,4,1) y(3,4,2) y(3,4,3) y(3,4,4) y(3,4,5) y(3,4,6)
 y(3,5,1) y(3,5,2) y(3,5,3) y(3,5,4) y(3,5,5) y(3,5,6) y(3,6,1) y(3,6,2)
 y(3,6,3) y(3,6,4) y(3,6,5) y(3,6,6) y(4,1,1) y(4,1,2) y(4,1,3) y(4,1,4)
 y(4,1,5) y(4,1,6) y(4,2,1) y(4,2,2) y(4,2,3) y(4,2,4) y(4,2,5) y(4,2,6)
 y(4,3,1) y(4,3,2) y(4,3,3) y(4,3,4) y(4,3,5) y(4,3,6) y(4,4,1) y(4,4,2)
 y(4,4,3) y(4,4,4) y(4,4,5) y(4,4,6) y(4,5,1) y(4,5,2) y(4,5,3) y(4,5,4)
 y(4,5,5) y(4,5,6) y(4,6,1) y(4,6,2) y(4,6,3) y(4,6,4) y(4,6,5) y(4,6,6)
 y(5,1,1) y(5,1,2) y(5,1,3) y(5,1,4) y(5,1,5) y(5,1,6) y(5,2,1) y(5,2,2)
 y(5,2,3) y(5,2,4) y(5,2,5) y(5,2,6) y(5,3,1) y(5,3,2) y(5,3,3) y(5,3,4)
 y(5,3,5) y(5,3,6) y(5,4,1) y(5,4,2) y(5,4,3) y(5,4,4) y(5,4,5) y(5,4,6)
 y(5,5,1) y(5,5,2) y(5,5,3) y(5,5,4) y(5,5,5) y(5,5,6) y(5,6,1) y(5,6,2)
 y(5,6,3) y(5,6,4) y(5,6,5) y(5,6,6) y(6,1,1) y(6,1,2) y(6,1,3) y(6,1,4)
 y(6,1,5) y(6,1,6) y(6,2,1) y(6,2,2) y(6,2,3) y(6,2,4) y(6,2,5) y(6,2,6)
 y(6,3,1) y(6,3,2) y(6,3,3) y(6,3,4) y(6,3,5) y(6,3,6) y(6,4,1) y(6,4,2)
 y(6,4,3) y(6,4,4) y(6,4,5) y(6,4,6) y(6,5,1) y(6,5,2) y(6,5,3) y(6,5,4)
 y(6,5,5) y(6,5,6) y(6,6,1) y(6,6,2) y(6,6,3) y(6,6,4) y(6,6,5) y(6,6,6)
Generals
 x(1,1) x(1,2) x(1,3) x(1,4) x(1,5) x(1,6) x(2,1) x(2,2) x(2,3) x(2,4)
 x(2,5) x(2,6) x(3,1) x(3,2) x(3,3) x(3,4) x(3,5) x(3,6) x(4,1) x(4,2)
 x(4,3) x(4,4) x(4,5) x(4,6) x(5,1) x(5,2) x(5,3) x(5,4) x(5,5) x(5,6)
 x(6,1) x(6,2) x(6,3) x(6,4) x(6,5) x(6,6) Z
End
