code/jssp_compact.sol
Optimal (within gap tolerance) - objective value 55 - solution time 1
0 x(1,1) 6 0
1 x(1,2) 25 0
2 x(1,3) 5 0
3 x(1,4) 31 0
4 x(1,5) 42 0
5 x(1,6) 38 0
6 x(2,1) 38 0
8 x(2,3) 8 0
9 x(2,4) 48 0
10 x(2,5) 15 0
11 x(2,6) 28 0
12 x(3,1) 19 0
13 x(3,2) 31 0
15 x(3,4) 7 0
16 x(3,5) 48 0
17 x(3,6) 11 0
18 x(4,1) 13 0
19 x(4,2) 8 0
20 x(4,3) 22 0
21 x(4,4) 27 0
22 x(4,5) 30 0
23 x(4,6) 46 0
24 x(5,1) 48 0
25 x(5,2) 22 0
26 x(5,3) 13 0
27 x(5,4) 52 0
28 x(5,5) 25 0
29 x(5,6) 41 0
30 x(6,1) 28 0
31 x(6,2) 13 0
32 x(6,3) 54 0
33 x(6,4) 16 0
34 x(6,5) 38 0
35 x(6,6) 19 0
42 y(1,2,1) 1 0
44 y(1,2,3) 1 0
45 y(1,2,4) 1 0
48 y(1,3,1) 1 0
49 y(1,3,2) 1 0
52 y(1,3,5) 1 0
54 y(1,4,1) 1 0
56 y(1,4,3) 1 0
59 y(1,4,6) 1 0
60 y(1,5,1) 1 0
62 y(1,5,3) 1 0
63 y(1,5,4) 1 0
65 y(1,5,6) 1 0
66 y(1,6,1) 1 0
68 y(1,6,3) 1 0
73 y(2,1,2) 1 0
76 y(2,1,5) 1 0
77 y(2,1,6) 1 0
85 y(2,3,2) 1 0
88 y(2,3,5) 1 0
91 y(2,4,2) 1 0
92 y(2,4,3) 1 0
94 y(2,4,5) 1 0
95 y(2,4,6) 1 0
96 y(2,5,1) 1 0
97 y(2,5,2) 1 0
98 y(2,5,3) 1 0
99 y(2,5,4) 1 0
100 y(2,5,5) 1 0
101 y(2,5,6) 1 0
103 y(2,6,2) 1 0
104 y(2,6,3) 1 0
106 y(2,6,5) 1 0
110 y(3,1,3) 1 0
111 y(3,1,4) 1 0
113 y(3,1,6) 1 0
114 y(3,2,1) 1 0
116 y(3,2,3) 1 0
117 y(3,2,4) 1 0
119 y(3,2,6) 1 0
128 y(3,4,3) 1 0
129 y(3,4,4) 1 0
131 y(3,4,6) 1 0
132 y(3,5,1) 1 0
134 y(3,5,3) 1 0
135 y(3,5,4) 1 0
137 y(3,5,6) 1 0
138 y(3,6,1) 1 0
140 y(3,6,3) 1 0
141 y(3,6,4) 1 0
143 y(3,6,6) 1 0
145 y(4,1,2) 1 0
147 y(4,1,4) 1 0
148 y(4,1,5) 1 0
150 y(4,2,1) 1 0
153 y(4,2,4) 1 0
156 y(4,3,1) 1 0
157 y(4,3,2) 1 0
160 y(4,3,5) 1 0
168 y(4,5,1) 1 0
169 y(4,5,2) 1 0
171 y(4,5,4) 1 0
174 y(4,6,1) 1 0
175 y(4,6,2) 1 0
176 y(4,6,3) 1 0
178 y(4,6,5) 1 0
181 y(5,1,2) 1 0
184 y(5,1,5) 1 0
193 y(5,3,2) 1 0
196 y(5,3,5) 1 0
200 y(5,4,3) 1 0
202 y(5,4,5) 1 0
203 y(5,4,6) 1 0
212 y(5,6,3) 1 0
214 y(5,6,5) 1 0
217 y(6,1,2) 1 0
219 y(6,1,4) 1 0
220 y(6,1,5) 1 0
221 y(6,1,6) 1 0
222 y(6,2,1) 1 0
225 y(6,2,4) 1 0
227 y(6,2,6) 1 0
229 y(6,3,2) 1 0
232 y(6,3,5) 1 0
237 y(6,4,4) 1 0
239 y(6,4,6) 1 0
240 y(6,5,1) 1 0
241 y(6,5,2) 1 0
243 y(6,5,4) 1 0
245 y(6,5,6) 1 0
252 Z 55 1
